
Gurobi 6.0.2 (mac64) logging started Tue Apr  7 12:07:10 2015


Gurobi 6.0.2 (mac64) logging started Wed Apr 22 00:13:19 2015


Gurobi 6.0.2 (mac64) logging started Wed Apr 22 00:13:54 2015

Optimize a model with 10 rows, 55 columns and 100 nonzeros
Coefficient statistics:
  Matrix range    [1e+00, 1e+00]
  Objective range [1e+01, 1e+02]
  Bounds range    [1e+00, 1e+00]
  RHS range       [2e+00, 2e+00]
Presolve removed 0 rows and 10 columns
Presolve time: 0.00s
Presolved: 10 rows, 45 columns, 90 nonzeros
Variable types: 0 continuous, 45 integer (45 binary)

Root relaxation: objective 3.360275e+02, 18 iterations, 0.00 seconds

    Nodes    |    Current Node    |     Objective Bounds      |     Work
 Expl Unexpl |  Obj  Depth IntInf | Incumbent    BestBd   Gap | It/Node Time

*    0     0               0     348.1976399  348.19764  0.00%     -    0s

Cutting planes:
  Lazy constraints: 4

Explored 0 nodes (21 simplex iterations) in 0.04 seconds
Thread count was 2 (of 4 available processors)

Optimal solution found (tolerance 1.00e-04)
Best objective 3.481976398931e+02, best bound 3.481976398931e+02, gap 0.0%
